p cnf 386 460
-1 2 7 21 22 0
-1 2 7 21 -22 0
-1 2 7 -21 23 0
-1 2 7 -21 -23 0
13 -15 -19 24 25 0
13 -15 -19 24 -25 0
13 -15 -19 -24 26 0
13 -15 -19 -24 -26 0
8 -7 6 27 28 0
8 -7 6 27 -28 0
8 -7 6 -27 29 0
8 -7 6 -27 -29 0
17 -9 6 30 31 0
17 -9 6 30 -31 0
17 -9 6 -30 32 0
17 -9 6 -30 -32 0
-17 -11 -13 33 34 0
-17 -11 -13 33 -34 0
-17 -11 -13 -33 35 0
-17 -11 -13 -33 -35 0
-8 -1 -14 36 37 0
-8 -1 -14 36 -37 0
-8 -1 -14 -36 38 0
-8 -1 -14 -36 -38 0
-2 -12 13 39 40 0
-2 -12 13 39 -40 0
-2 -12 13 -39 41 0
-2 -12 13 -39 -41 0
17 1 15 42 43 0
17 1 15 42 -43 0
17 1 15 -42 44 0
17 1 15 -42 -44 0
6 -18 -12 45 46 0
6 -18 -12 45 -46 0
6 -18 -12 -45 47 0
6 -18 -12 -45 -47 0
18 5 -4 48 49 0
18 5 -4 48 -49 0
18 5 -4 -48 50 0
18 5 -4 -48 -50 0
-17 5 10 51 52 0
-17 5 10 51 -52 0
-17 5 10 -51 53 0
-17 5 10 -51 -53 0
-12 17 1 54 55 0
-12 17 1 54 -55 0
-12 17 1 -54 56 0
-12 17 1 -54 -56 0
8 -11 -4 57 58 0
8 -11 -4 57 -58 0
8 -11 -4 -57 59 0
8 -11 -4 -57 -59 0
15 9 11 60 61 0
15 9 11 60 -61 0
15 9 11 -60 62 0
15 9 11 -60 -62 0
18 -7 -9 63 64 0
18 -7 -9 63 -64 0
18 -7 -9 -63 65 0
18 -7 -9 -63 -65 0
18 13 -7 66 67 0
18 13 -7 66 -67 0
18 13 -7 -66 68 0
18 13 -7 -66 -68 0
15 18 -7 69 70 0
15 18 -7 69 -70 0
15 18 -7 -69 71 0
15 18 -7 -69 -71 0
18 -7 -3 72 73 0
18 -7 -3 72 -73 0
18 -7 -3 -72 74 0
18 -7 -3 -72 -74 0
18 -10 4 75 76 0
18 -10 4 75 -76 0
18 -10 4 -75 77 0
18 -10 4 -75 -77 0
-15 -2 4 78 79 0
-15 -2 4 78 -79 0
-15 -2 4 -78 80 0
-15 -2 4 -78 -80 0
4 -12 7 81 82 0
4 -12 7 81 -82 0
4 -12 7 -81 83 0
4 -12 7 -81 -83 0
2 -12 -15 84 85 0
2 -12 -15 84 -85 0
2 -12 -15 -84 86 0
2 -12 -15 -84 -86 0
2 16 4 87 88 0
2 16 4 87 -88 0
2 16 4 -87 89 0
2 16 4 -87 -89 0
3 2 14 90 91 0
3 2 14 90 -91 0
3 2 14 -90 92 0
3 2 14 -90 -92 0
-8 -4 9 93 94 0
-8 -4 9 93 -94 0
-8 -4 9 -93 95 0
-8 -4 9 -93 -95 0
-12 18 15 96 97 0
-12 18 15 96 -97 0
-12 18 15 -96 98 0
-12 18 15 -96 -98 0
-19 -6 -20 99 100 0
-19 -6 -20 99 -100 0
-19 -6 -20 -99 101 0
-19 -6 -20 -99 -101 0
-11 -15 -14 102 103 0
-11 -15 -14 102 -103 0
-11 -15 -14 -102 104 0
-11 -15 -14 -102 -104 0
-18 1 20 105 106 0
-18 1 20 105 -106 0
-18 1 20 -105 107 0
-18 1 20 -105 -107 0
18 14 13 108 109 0
18 14 13 108 -109 0
18 14 13 -108 110 0
18 14 13 -108 -110 0
9 -16 4 111 112 0
9 -16 4 111 -112 0
9 -16 4 -111 113 0
9 -16 4 -111 -113 0
12 14 -5 114 115 0
12 14 -5 114 -115 0
12 14 -5 -114 116 0
12 14 -5 -114 -116 0
-1 3 10 117 118 0
-1 3 10 117 -118 0
-1 3 10 -117 119 0
-1 3 10 -117 -119 0
19 1 -18 120 121 0
19 1 -18 120 -121 0
19 1 -18 -120 122 0
19 1 -18 -120 -122 0
19 2 1 123 124 0
19 2 1 123 -124 0
19 2 1 -123 125 0
19 2 1 -123 -125 0
-19 -12 13 126 127 0
-19 -12 13 126 -127 0
-19 -12 13 -126 128 0
-19 -12 13 -126 -128 0
4 -13 16 129 130 0
4 -13 16 129 -130 0
4 -13 16 -129 131 0
4 -13 16 -129 -131 0
-4 -20 8 132 133 0
-4 -20 8 132 -133 0
-4 -20 8 -132 134 0
-4 -20 8 -132 -134 0
-20 17 -9 135 136 0
-20 17 -9 135 -136 0
-20 17 -9 -135 137 0
-20 17 -9 -135 -137 0
-12 1 20 138 139 0
-12 1 20 138 -139 0
-12 1 20 -138 140 0
-12 1 20 -138 -140 0
-2 -3 -20 141 142 0
-2 -3 -20 141 -142 0
-2 -3 -20 -141 143 0
-2 -3 -20 -141 -143 0
18 -12 -14 144 145 0
18 -12 -14 144 -145 0
18 -12 -14 -144 146 0
18 -12 -14 -144 -146 0
10 -6 3 147 148 0
10 -6 3 147 -148 0
10 -6 3 -147 149 0
10 -6 3 -147 -149 0
5 -2 -19 150 151 0
5 -2 -19 150 -151 0
5 -2 -19 -150 152 0
5 -2 -19 -150 -152 0
-8 19 3 153 154 0
-8 19 3 153 -154 0
-8 19 3 -153 155 0
-8 19 3 -153 -155 0
14 5 -17 156 157 0
14 5 -17 156 -157 0
14 5 -17 -156 158 0
14 5 -17 -156 -158 0
-6 15 9 159 160 0
-6 15 9 159 -160 0
-6 15 9 -159 161 0
-6 15 9 -159 -161 0
2 16 12 162 163 0
2 16 12 162 -163 0
2 16 12 -162 164 0
2 16 12 -162 -164 0
5 -8 7 165 166 0
5 -8 7 165 -166 0
5 -8 7 -165 167 0
5 -8 7 -165 -167 0
-14 -1 4 168 169 0
-14 -1 4 168 -169 0
-14 -1 4 -168 170 0
-14 -1 4 -168 -170 0
-20 -5 -15 171 172 0
-20 -5 -15 171 -172 0
-20 -5 -15 -171 173 0
-20 -5 -15 -171 -173 0
-11 18 -13 174 175 0
-11 18 -13 174 -175 0
-11 18 -13 -174 176 0
-11 18 -13 -174 -176 0
-5 -11 -14 177 178 0
-5 -11 -14 177 -178 0
-5 -11 -14 -177 179 0
-5 -11 -14 -177 -179 0
2 19 -4 180 181 0
2 19 -4 180 -181 0
2 19 -4 -180 182 0
2 19 -4 -180 -182 0
-13 -16 -19 183 184 0
-13 -16 -19 183 -184 0
-13 -16 -19 -183 185 0
-13 -16 -19 -183 -185 0
7 11 16 186 187 0
7 11 16 186 -187 0
7 11 16 -186 188 0
7 11 16 -186 -188 0
-19 -17 -6 189 190 0
-19 -17 -6 189 -190 0
-19 -17 -6 -189 191 0
-19 -17 -6 -189 -191 0
10 -1 -5 192 193 0
10 -1 -5 192 -193 0
10 -1 -5 -192 194 0
10 -1 -5 -192 -194 0
20 18 -17 195 196 0
20 18 -17 195 -196 0
20 18 -17 -195 197 0
20 18 -17 -195 -197 0
-2 -18 14 198 199 0
-2 -18 14 198 -199 0
-2 -18 14 -198 200 0
-2 -18 14 -198 -200 0
11 1 15 201 202 0
11 1 15 201 -202 0
11 1 15 -201 203 0
11 1 15 -201 -203 0
-14 -1 -18 204 205 0
-14 -1 -18 204 -205 0
-14 -1 -18 -204 206 0
-14 -1 -18 -204 -206 0
14 -2 -18 207 208 0
14 -2 -18 207 -208 0
14 -2 -18 -207 209 0
14 -2 -18 -207 -209 0
5 -9 12 210 211 0
5 -9 12 210 -211 0
5 -9 12 -210 212 0
5 -9 12 -210 -212 0
9 12 3 213 214 0
9 12 3 213 -214 0
9 12 3 -213 215 0
9 12 3 -213 -215 0
19 7 1 216 217 0
19 7 1 216 -217 0
19 7 1 -216 218 0
19 7 1 -216 -218 0
19 -9 17 219 220 0
19 -9 17 219 -220 0
19 -9 17 -219 221 0
19 -9 17 -219 -221 0
2 -6 8 222 223 0
2 -6 8 222 -223 0
2 -6 8 -222 224 0
2 -6 8 -222 -224 0
-12 -5 15 225 226 0
-12 -5 15 225 -226 0
-12 -5 15 -225 227 0
-12 -5 15 -225 -227 0
-8 -10 -6 228 229 0
-8 -10 -6 228 -229 0
-8 -10 -6 -228 230 0
-8 -10 -6 -228 -230 0
-15 -3 -13 231 232 0
-15 -3 -13 231 -232 0
-15 -3 -13 -231 233 0
-15 -3 -13 -231 -233 0
-17 -19 14 234 235 0
-17 -19 14 234 -235 0
-17 -19 14 -234 236 0
-17 -19 14 -234 -236 0
-4 1 11 237 238 0
-4 1 11 237 -238 0
-4 1 11 -237 239 0
-4 1 11 -237 -239 0
14 -19 12 240 241 0
14 -19 12 240 -241 0
14 -19 12 -240 242 0
14 -19 12 -240 -242 0
-11 5 -19 243 244 0
-11 5 -19 243 -244 0
-11 5 -19 -243 245 0
-11 5 -19 -243 -245 0
9 -15 17 246 247 0
9 -15 17 246 -247 0
9 -15 17 -246 248 0
9 -15 17 -246 -248 0
16 11 5 249 250 0
16 11 5 249 -250 0
16 11 5 -249 251 0
16 11 5 -249 -251 0
15 -8 -5 252 253 0
15 -8 -5 252 -253 0
15 -8 -5 -252 254 0
15 -8 -5 -252 -254 0
13 -12 11 255 256 0
13 -12 11 255 -256 0
13 -12 11 -255 257 0
13 -12 11 -255 -257 0
-13 11 -12 258 259 0
-13 11 -12 258 -259 0
-13 11 -12 -258 260 0
-13 11 -12 -258 -260 0
5 -15 -7 261 262 0
5 -15 -7 261 -262 0
5 -15 -7 -261 263 0
5 -15 -7 -261 -263 0
-7 12 -11 264 265 0
-7 12 -11 264 -265 0
-7 12 -11 -264 266 0
-7 12 -11 -264 -266 0
16 -2 -20 267 268 0
16 -2 -20 267 -268 0
16 -2 -20 -267 269 0
16 -2 -20 -267 -269 0
-15 -12 2 270 271 0
-15 -12 2 270 -271 0
-15 -12 2 -270 272 0
-15 -12 2 -270 -272 0
10 2 -1 273 274 0
10 2 -1 273 -274 0
10 2 -1 -273 275 0
10 2 -1 -273 -275 0
6 -3 -20 276 277 0
6 -3 -20 276 -277 0
6 -3 -20 -276 278 0
6 -3 -20 -276 -278 0
13 -11 10 279 280 0
13 -11 10 279 -280 0
13 -11 10 -279 281 0
13 -11 10 -279 -281 0
-20 8 5 282 283 0
-20 8 5 282 -283 0
-20 8 5 -282 284 0
-20 8 5 -282 -284 0
-11 3 16 285 286 0
-11 3 16 285 -286 0
-11 3 16 -285 287 0
-11 3 16 -285 -287 0
1 -11 -8 288 289 0
1 -11 -8 288 -289 0
1 -11 -8 -288 290 0
1 -11 -8 -288 -290 0
-15 17 -18 291 292 0
-15 17 -18 291 -292 0
-15 17 -18 -291 293 0
-15 17 -18 -291 -293 0
294 295 297 301 309 0
294 295 297 301 -309 0
294 295 297 -301 310 0
294 295 297 -301 -310 0
294 295 -297 302 311 0
294 295 -297 302 -311 0
294 295 -297 -302 312 0
294 295 -297 -302 -312 0
294 -295 298 303 313 0
294 -295 298 303 -313 0
294 -295 298 -303 314 0
294 -295 298 -303 -314 0
294 -295 -298 304 315 0
294 -295 -298 304 -315 0
294 -295 -298 -304 316 0
294 -295 -298 -304 -316 0
-294 296 299 305 317 0
-294 296 299 305 -317 0
-294 296 299 -305 318 0
-294 296 299 -305 -318 0
-294 296 -299 306 319 0
-294 296 -299 306 -319 0
-294 296 -299 -306 320 0
-294 296 -299 -306 -320 0
-294 -296 300 307 321 0
-294 -296 300 307 -321 0
-294 -296 300 -307 322 0
-294 -296 300 -307 -322 0
-294 -296 -300 308 323 0
-294 -296 -300 308 -323 0
-294 -296 -300 -308 324 0
-294 -296 -300 -308 -324 0
325 326 328 332 340 0
325 326 328 332 -340 0
325 326 328 -332 341 0
325 326 328 -332 -341 0
325 326 -328 333 342 0
325 326 -328 333 -342 0
325 326 -328 -333 343 0
325 326 -328 -333 -343 0
325 -326 329 334 344 0
325 -326 329 334 -344 0
325 -326 329 -334 345 0
325 -326 329 -334 -345 0
325 -326 -329 335 346 0
325 -326 -329 335 -346 0
325 -326 -329 -335 347 0
325 -326 -329 -335 -347 0
-325 327 330 336 348 0
-325 327 330 336 -348 0
-325 327 330 -336 349 0
-325 327 330 -336 -349 0
-325 327 -330 337 350 0
-325 327 -330 337 -350 0
-325 327 -330 -337 351 0
-325 327 -330 -337 -351 0
-325 -327 331 338 352 0
-325 -327 331 338 -352 0
-325 -327 331 -338 353 0
-325 -327 331 -338 -353 0
-325 -327 -331 339 354 0
-325 -327 -331 339 -354 0
-325 -327 -331 -339 355 0
-325 -327 -331 -339 -355 0
356 357 359 363 371 0
356 357 359 363 -371 0
356 357 359 -363 372 0
356 357 359 -363 -372 0
356 357 -359 364 373 0
356 357 -359 364 -373 0
356 357 -359 -364 374 0
356 357 -359 -364 -374 0
356 -357 360 365 375 0
356 -357 360 365 -375 0
356 -357 360 -365 376 0
356 -357 360 -365 -376 0
356 -357 -360 366 377 0
356 -357 -360 366 -377 0
356 -357 -360 -366 378 0
356 -357 -360 -366 -378 0
-356 358 361 367 379 0
-356 358 361 367 -379 0
-356 358 361 -367 380 0
-356 358 361 -367 -380 0
-356 358 -361 368 381 0
-356 358 -361 368 -381 0
-356 358 -361 -368 382 0
-356 358 -361 -368 -382 0
-356 -358 362 369 383 0
-356 -358 362 369 -383 0
-356 -358 362 -369 384 0
-356 -358 362 -369 -384 0
-356 -358 -362 370 385 0
-356 -358 -362 370 -385 0
-356 -358 -362 -370 386 0
-356 -358 -362 -370 -386 0

